p cnf 620 1871
c ind 575 616 617 541 600 567 572 540 601 606 0
c ind 608 610 612 614 568 569 576 607 611 615 0
c ind 573 574 577 587 609 560 561 562 565 578 0
c ind 579 580 581 582 542 589 592 594 604 544 0
c ind 546 550 551 564 522 520 543 603 605 549 0
c ind 552 527 528 529 590 593 602 613 545 558 0
c ind 559 553 554 563 566 588 591 525 526 571 0
c ind 585 532 530 570 586 521 618 595 537 599 0
c ind 548 555 547 539 524 598 597 556 519 583 0
c ind 584 531 557 518 596 517 538 523 516 515 0
c ind 514 533 536 534 535 1 0
c ret 478 479 498 500 426 436 442 437 491 410 0
c ret 423 424 425 416 417 418 438 411 407 408 0
c ret 409 443 439 412 440 405 492 441 406 452 0
c ret 493 444 427 494 445 428 446 429 513 447 0
c ret 413 448 414 449 415 434 481 433 453 454 0
c ret 455 480 456 457 458 459 419 460 420 461 0
c ret 421 462 507 463 508 464 509 467 510 450 0
c ret 468 511 469 512 465 473 472 474 495 496 0
c ret 490 497 471 470 466 451 475 430 476 431 0
c ret 477 432 422 483 482 485 484 486 505 504 0
c ret 506 488 502 487 501 489 503 435 499 0
2 3 -389 433 0
2 3 -376 -389 0
-2 389 0
-2 -3 0
-2 376 -433 0
3 -4 -99 -140 583 0
3 4 -99 -140 -583 0
-3 140 0
-3 4 583 0
-3 99 0
-3 -4 -583 0
4 -92 96 0
4 5 87 96 0
-4 -96 0
-4 -87 92 0
-4 -5 92 0
5 -78 -80 0
5 6 16 -80 0
-5 80 0
-5 -16 78 0
-5 -6 78 0
6 7 8 0
-6 -7 0
-6 -8 0
7 -433 -478 0
-7 433 0
-7 478 0
8 -9 -535 536 0
8 -13 -535 536 0
-8 535 0
-8 -536 0
-8 9 13 0
7 9 -11 -479 0
9 -10 -11 -479 0
-9 11 0
-9 479 0
-7 -9 10 0
10 533 -534 0
-10 -533 0
-10 534 0
-7 11 -12 0
11 -12 -533 534 0
-11 12 0
7 -11 -534 0
7 -11 533 0
12 -433 -480 481 0
-12 433 0
-12 480 0
-12 -481 0
13 -14 -15 -533 -534 0
-13 15 0
-13 533 0
-13 14 0
-13 534 0
14 -433 -481 0
-14 433 0
-14 481 0
15 433 0
15 478 479 480 0
-15 -433 -478 0
-15 -433 -480 0
-15 -433 -479 0
16 -17 490 0
16 -17 22 0
16 -17 433 0
-16 17 0
-16 -22 -433 -490 0
17 -18 -20 -21 0
-17 18 0
-17 20 0
-17 21 0
18 -19 -433 -480 481 0
-18 19 0
-18 433 0
-18 480 0
-18 -481 0
19 -533 534 535 -536 0
-19 536 0
-19 -535 0
-19 533 0
-19 -534 0
20 -433 -470 -471 -531 0
-20 531 0
-20 433 0
-20 471 0
-20 470 0
21 -433 -478 479 0
-21 433 0
-21 478 0
-21 -479 0
22 -23 -25 -27 -42 0
-22 42 0
-22 23 0
-22 27 0
-22 25 0
23 24 433 0
23 24 -473 -485 0
23 24 473 485 0
-23 -24 0
-23 -433 473 -485 0
-23 -433 -473 485 0
24 -433 461 -506 0
24 -433 -461 506 0
-24 433 0
-24 -461 -506 0
-24 461 506 0
25 26 433 0
25 26 -440 -482 0
25 26 440 482 0
-25 -26 0
-25 -433 440 -482 0
-25 -433 -440 482 0
26 -433 487 -501 0
26 -433 -487 501 0
-26 433 0
-26 -487 -501 0
-26 487 501 0
27 -28 -31 -33 -36 0
-27 36 0
-27 28 0
-27 33 0
-27 31 0
28 -29 433 0
28 -29 438 468 0
28 -29 -438 -468 0
-28 29 0
-28 -433 438 -468 0
-28 -433 -438 468 0
29 30 507 0
29 30 -447 0
29 30 433 0
-29 -30 0
-29 -433 447 -507 0
30 -433 459 -504 0
-30 433 0
-30 -459 0
-30 504 0
31 32 433 0
31 32 -477 -512 0
31 32 477 512 0
-31 -32 0
-31 -433 477 -512 0
-31 -433 -477 512 0
32 -433 437 -467 0
32 -433 -437 467 0
-32 433 0
-32 -437 -467 0
-32 437 467 0
33 -34 433 0
33 -34 436 446 0
33 -34 -436 -446 0
-33 34 0
-33 -433 436 -446 0
-33 -433 -436 446 0
34 35 444 0
34 35 -434 0
34 35 433 0
-34 -35 0
-34 -433 434 -444 0
35 -433 441 -483 0
-35 433 0
-35 -441 0
-35 483 0
36 37 38 39 40 0
36 37 -38 -39 40 0
-36 -40 0
-36 -38 39 0
-36 -37 0
-36 38 -39 0
37 -433 -441 483 0
-37 433 0
-37 441 0
-37 -483 0
38 -433 -474 0
-38 433 0
-38 474 0
39 -433 -486 0
-39 433 0
-39 486 0
40 -41 444 0
-40 -444 0
-40 41 0
41 -433 -434 0
-41 433 0
-41 434 0
42 -43 -49 -55 -61 0
-42 61 0
-42 43 0
-42 55 0
-42 49 0
43 45 46 -47 0
43 -44 46 -47 0
-43 47 0
-43 -46 0
-43 44 -45 0
44 -433 -510 0
-44 433 0
-44 510 0
45 -433 -475 0
-45 433 0
-45 475 0
46 -433 -463 499 0
-46 433 0
-46 463 0
-46 -499 0
47 48 499 0
47 48 -463 0
47 48 433 0
-47 -48 0
-47 -433 463 -499 0
48 -433 -464 500 0
-48 433 0
-48 464 0
-48 -500 0
49 -50 -52 54 0
49 51 -52 54 0
-49 52 0
-49 -54 0
-49 50 -51 0
50 -433 -484 0
-50 433 0
-50 484 0
51 -433 -472 0
-51 433 0
-51 472 0
52 53 484 0
52 53 -472 0
52 53 433 0
-52 -53 0
-52 -433 472 -484 0
53 -433 489 -503 0
-53 433 0
-53 -489 0
-53 503 0
54 -433 475 -510 0
-54 433 0
-54 -475 0
-54 510 0
55 -57 -58 60 0
55 56 -58 60 0
-55 58 0
-55 -60 0
-55 -56 57 0
56 -433 -489 0
-56 433 0
-56 489 0
57 -433 -503 0
-57 433 0
-57 503 0
58 59 505 0
58 59 -460 0
58 59 433 0
-58 -59 0
-58 -433 460 -505 0
59 -433 -462 498 0
-59 433 0
-59 462 0
-59 -498 0
60 -433 462 -498 0
-60 433 0
-60 -462 0
-60 498 0
61 -62 -64 -66 -69 0
-61 69 0
-61 62 0
-61 66 0
-61 64 0
62 63 476 0
62 63 -511 0
62 63 433 0
-62 -63 0
-62 -433 -476 511 0
63 -433 -448 508 0
-63 433 0
-63 448 0
-63 -508 0
64 65 508 0
64 65 -448 0
64 65 433 0
-64 -65 0
-64 -433 448 -508 0
65 -433 -449 509 0
-65 433 0
-65 449 0
-65 -509 0
66 -67 433 0
66 -67 435 445 0
66 -67 -435 -445 0
-66 67 0
-66 -433 435 -445 0
-66 -433 -435 445 0
67 68 511 0
67 68 -476 0
67 68 433 0
-67 -68 0
-67 -433 476 -511 0
68 -433 -459 504 0
-68 433 0
-68 459 0
-68 -504 0
69 -70 -72 -74 -76 0
-69 76 0
-69 70 0
-69 74 0
-69 72 0
70 71 447 0
70 71 -507 0
70 71 433 0
-70 -71 0
-70 -433 -447 507 0
71 -433 -488 502 0
-71 433 0
-71 488 0
-71 -502 0
72 73 502 0
72 73 -488 0
72 73 433 0
-72 -73 0
-72 -433 488 -502 0
73 -433 -460 505 0
-73 433 0
-73 460 0
-73 -505 0
74 75 509 0
74 75 -449 0
74 75 433 0
-74 -75 0
-74 -433 449 -509 0
75 -433 -439 469 0
-75 433 0
-75 439 0
-75 -469 0
76 77 469 0
76 77 -439 0
76 77 433 0
-76 -77 0
-76 -433 439 -469 0
77 -433 464 -500 0
-77 433 0
-77 -464 0
-77 500 0
7 -18 -20 78 79 0
-7 -78 0
20 -78 0
18 -78 0
-78 -79 0
79 -433 -479 0
-79 433 0
-79 479 0
80 81 82 -426 0
80 81 82 83 0
-80 -82 0
-80 -81 0
-80 -83 426 0
22 -78 81 0
-78 81 -433 -490 0
78 -81 0
-22 -81 490 0
-22 -81 433 0
-6 82 -422 0
-17 82 -422 0
-82 422 0
6 17 -82 0
83 -84 -85 0
-83 84 0
-83 85 0
84 533 534 -535 536 0
-84 -533 0
-84 -536 0
-84 535 0
-84 -534 0
85 -86 -433 -478 -479 0
-85 86 0
-85 433 0
-85 479 0
-85 478 0
86 433 0
86 480 481 0
-86 -433 -480 0
-86 -433 -481 0
-79 87 -88 -91 478 0
-87 -478 0
-87 91 0
-87 88 0
79 -87 0
88 -89 -90 -524 0
-88 524 0
-88 89 0
-88 90 0
89 433 0
89 450 451 0
-89 -433 -450 0
-89 -433 -451 0
90 -433 -452 0
-90 433 0
-90 452 0
-19 -86 91 0
19 -91 0
86 -91 0
-21 -91 92 -93 0
21 -92 0
91 -92 0
-92 93 0
90 93 94 -95 -537 0
-93 95 0
-90 -93 0
-93 537 0
-93 -94 0
94 -433 -450 0
-94 433 0
-94 450 0
95 -433 -451 0
-95 433 0
-95 451 0
14 -15 96 -97 -98 0
-14 -96 0
-96 98 0
-96 97 0
15 -96 0
97 -533 -534 0
-97 533 0
-97 534 0
98 535 536 0
-98 -535 0
-98 -536 0
99 -100 -103 -119 585 0
99 100 -103 -119 -585 0
-99 119 0
-99 100 585 0
-99 103 0
-99 -100 -585 0
-81 83 100 0
83 100 101 0
-8 83 100 0
-83 -100 0
8 81 -100 -101 0
17 101 -102 0
-101 102 0
-17 -101 0
102 -433 -480 0
-102 433 0
-102 480 0
103 -104 112 557 0
103 -104 -112 -557 0
-103 104 0
-103 112 -557 0
-103 -112 557 0
104 -105 -569 0
104 111 568 0
104 568 -569 0
104 -105 111 0
-104 105 -568 0
-104 -111 569 0
105 106 -433 -463 0
105 -106 -433 -508 0
-105 433 0
-105 106 463 0
-105 -106 508 0
106 -107 -514 0
-106 514 0
-106 107 0
107 -108 -515 0
-107 515 0
-107 108 0
108 -109 516 0
-108 -516 0
-108 109 0
109 -110 -523 0
-109 523 0
-109 110 0
110 533 534 535 536 0
-110 -536 0
-110 -535 0
-110 -533 0
-110 -534 0
106 111 -433 -464 0
-106 111 -433 -509 0
-111 433 0
106 -111 464 0
-106 -111 509 0
112 -113 -115 0
-90 112 -115 118 0
-112 115 0
-112 113 -118 0
90 -112 113 0
113 -114 -433 -443 0
-113 433 0
-113 443 0
-113 114 0
-19 -89 90 114 0
19 -114 0
89 -114 0
-90 -114 0
115 116 -442 0
113 115 116 0
-115 -116 0
-113 -115 442 0
-41 -113 116 -117 -436 0
-116 117 0
-116 436 0
113 -116 0
41 -116 0
117 -433 -435 -442 0
-117 433 0
-117 435 0
-117 442 0
-19 -89 118 -524 0
-118 524 0
19 -118 0
89 -118 0
119 -120 -130 -131 0
-119 120 0
-119 130 0
-119 131 0
120 -129 -555 0
120 -121 567 0
120 -555 567 0
120 -121 -129 0
-120 121 555 0
-120 129 -567 0
94 121 -126 0
121 -122 -126 0
121 -124 -126 0
-121 126 0
-94 -121 122 124 0
-19 -88 122 0
-19 122 -123 0
-19 -93 122 0
19 -122 0
88 93 -122 123 0
90 -94 95 123 -532 0
94 -123 0
-90 -123 0
-123 532 0
-95 -123 0
90 -94 124 -125 -451 0
-124 125 0
-124 451 0
94 -124 0
-90 -124 0
-19 125 -524 0
-125 524 0
19 -125 0
114 116 126 0
116 126 -127 0
116 126 128 0
-116 -126 0
-114 -126 127 -128 0
127 -433 -443 0
-127 433 0
-127 443 0
128 -433 -442 0
-128 433 0
-128 442 0
106 129 -433 -462 0
-106 129 -433 -507 0
-129 433 0
106 -129 462 0
-106 -129 507 0
-111 130 -568 0
105 130 569 0
105 -111 130 0
130 -568 569 0
111 -130 -569 0
-105 -130 568 0
131 -132 133 137 556 0
131 132 133 137 -556 0
-131 -133 0
-131 132 556 0
-131 -137 0
-131 -132 -556 0
95 -115 132 0
-115 -122 132 0
-115 -124 132 0
115 -132 0
-95 122 124 -132 0
133 -134 -600 0
133 134 600 0
-133 -134 600 0
-133 134 -600 0
134 135 495 0
134 -135 517 0
134 135 433 0
-134 -135 -517 0
-134 135 -433 -495 0
135 -136 -514 -515 0
-135 514 0
-135 515 0
-135 136 0
-109 136 -516 0
-136 516 0
109 -136 0
137 -138 578 0
-137 -578 0
-137 138 0
138 -139 -433 -435 0
138 139 -433 -473 0
-138 433 0
-138 -139 435 0
-138 139 473 0
-107 139 514 0
-139 -514 0
107 -139 0
140 -141 -211 -374 584 0
140 -141 -211 374 -584 0
-140 141 0
-140 -374 -584 0
-140 211 0
-140 374 584 0
141 -142 -169 -206 586 0
141 -142 -169 206 -586 0
-141 142 0
-141 -206 -586 0
-141 169 0
-141 206 586 0
142 -143 -168 -540 575 0
142 143 -168 -540 -575 0
142 -143 168 540 575 0
142 143 168 540 -575 0
-142 -143 -575 0
-142 143 575 0
-142 -168 540 0
-142 168 -540 0
143 -144 167 0
143 144 146 147 0
-143 144 -146 0
-143 -144 -167 0
-143 144 -147 0
-110 144 -145 516 523 0
-144 -516 0
-144 145 0
110 -144 0
-144 -523 0
145 514 515 0
-145 -514 0
-145 -515 0
146 -433 -470 531 0
146 -433 -470 471 0
-146 433 0
-146 470 0
-146 -471 -531 0
147 -148 -151 -153 -159 0
-147 159 0
-147 148 0
-147 153 0
-147 151 0
148 150 -453 0
41 148 -149 0
41 148 150 0
148 -149 -453 0
-41 -148 453 0
-148 149 -150 0
149 -433 -435 0
-149 433 0
-149 435 0
150 -433 -454 0
-150 433 0
-150 454 0
151 152 472 0
151 152 -456 0
151 152 433 0
-151 -152 0
-151 -433 456 -472 0
152 490 496 0
152 -490 495 0
-152 -490 -495 0
-152 490 -496 0
153 -154 -158 -436 0
153 -154 157 -158 0
-153 158 0
-153 154 0
-153 -157 436 0
154 -155 156 -434 0
154 -155 156 453 0
-154 155 0
-154 -156 0
-154 434 -453 0
155 -433 -471 0
-155 433 0
-155 471 0
156 -495 -496 0
-156 495 0
-156 496 0
157 -433 -455 0
-157 433 0
-157 455 0
158 -465 470 497 -522 0
-158 522 0
-158 -497 0
-158 465 0
-158 -470 0
159 -161 -162 -473 0
159 160 -161 -162 0
-159 162 0
-159 161 0
-159 -160 473 0
160 -433 -457 0
-160 433 0
-160 457 0
161 433 0
161 -458 -474 0
161 458 474 0
-161 -433 458 -474 0
-161 -433 -458 474 0
162 -164 166 -457 0
162 163 -164 166 0
-162 164 0
-162 -166 0
-162 -163 457 0
163 -433 -473 0
-163 433 0
-163 473 0
164 165 436 0
164 165 -455 0
164 165 433 0
-164 -165 0
-164 -433 -436 455 0
165 -433 -435 454 0
-165 433 0
-165 435 0
-165 -454 0
166 -433 -456 472 0
-166 433 0
-166 456 0
-166 -472 0
167 -433 -470 517 0
167 -433 -466 -470 0
-167 433 0
-167 470 0
-167 466 -517 0
139 -149 168 0
-139 168 -518 0
139 149 -168 0
-139 -168 518 0
169 -170 -186 -202 -203 0
-169 203 0
-169 170 0
-169 202 0
-169 186 0
170 -171 -175 -178 -183 0
-170 183 0
-170 171 0
-170 178 0
-170 175 0
171 602 608 0
171 -172 174 0
171 174 608 0
171 -172 602 0
-171 -174 -602 0
-171 172 -608 0
-57 172 173 0
172 -173 -519 0
57 -172 173 0
-172 -173 519 0
-136 173 -514 515 0
-173 514 0
-173 -515 0
136 -173 0
135 174 497 0
-135 174 519 0
135 174 433 0
-135 -174 -519 0
135 -174 -433 -497 0
175 -609 610 0
175 -176 177 0
175 177 610 0
175 -176 -609 0
-175 176 -610 0
-175 -177 609 0
-173 176 -433 -502 0
173 176 -433 -505 0
-176 433 0
-173 -176 502 0
173 -176 505 0
-173 177 -433 -501 0
173 177 -433 -504 0
-177 433 0
-173 -177 501 0
173 -177 504 0
178 179 615 0
178 -182 -617 0
178 615 -617 0
178 179 -182 0
-178 182 -615 0
-178 -179 617 0
179 -180 181 0
179 -181 -519 0
-179 180 181 0
-179 -181 519 0
180 -433 -512 0
-180 433 0
-180 512 0
-136 181 514 515 0
136 -181 0
-181 -515 0
-181 -514 0
-44 181 182 0
-181 182 -517 0
44 181 -182 0
-181 -182 517 0
176 183 -607 0
183 184 -610 0
183 -607 -610 0
176 183 184 0
-183 -184 607 0
-176 -183 610 0
173 184 -185 0
-173 184 -518 0
173 -184 185 0
-173 -184 518 0
185 -433 -502 0
-185 433 0
-185 502 0
186 187 199 200 572 0
186 187 -199 200 -572 0
-186 -187 0
-186 199 -572 0
-186 -200 0
-186 -199 572 0
187 191 -538 0
187 188 -538 596 0
-187 538 0
-187 -191 -596 0
-187 -188 -191 0
188 189 557 0
188 189 -548 0
188 189 -583 0
-188 -189 0
-188 548 -557 583 0
189 -190 -598 0
189 -556 -584 -598 0
-189 598 0
-189 190 584 0
-189 190 556 0
190 -557 -583 0
-190 557 0
-190 583 0
191 194 -195 -583 0
191 -192 194 -195 0
-191 195 0
-191 -194 0
-191 192 583 0
192 -193 539 599 0
192 -193 -557 599 0
-192 193 0
-192 -599 0
-192 -539 557 0
193 555 556 0
-193 -555 0
-193 -556 0
194 -555 -596 0
194 548 -556 -596 0
-194 596 0
-194 -548 555 0
-194 555 556 0
195 196 197 -198 0
195 197 -198 -584 0
-195 198 0
-195 -197 0
-195 -196 584 0
196 556 -598 0
-196 -556 0
-196 598 0
197 547 -556 -596 0
197 -556 -596 598 0
-197 596 0
-197 556 0
-197 -547 -598 0
198 557 585 586 0
198 -584 585 586 0
-198 -586 0
-198 -585 0
-198 -557 584 0
181 199 -433 -467 0
-181 199 -433 -510 0
-199 433 0
181 -199 467 0
-181 -199 510 0
200 -201 573 0
-200 -573 0
-200 201 0
181 201 -433 -468 0
-181 201 -433 -511 0
-201 433 0
181 -201 468 0
-181 -201 511 0
-177 202 -602 0
-174 202 609 0
202 -602 609 0
-174 -177 202 0
174 -202 602 0
177 -202 -609 0
172 203 548 0
203 -204 -608 0
203 548 -608 0
172 203 -204 0
-203 204 -548 0
-172 -203 608 0
204 -205 -518 0
204 205 -433 -443 0
-204 205 443 0
-204 -205 518 0
-204 205 433 0
-108 205 -514 515 0
-205 514 0
-205 -515 0
108 -205 0
17 81 206 207 0
14 17 81 206 0
-81 -206 0
-17 -206 0
-14 -206 -207 0
8 207 208 0
8 21 207 0
-8 -207 0
-21 -207 -208 0
-14 102 208 -209 -210 0
-208 210 0
14 -208 0
-208 209 0
-102 -208 0
209 535 -536 0
-209 -535 0
-209 536 0
210 533 534 0
-210 -533 0
-210 -534 0
211 -212 -236 -244 -262 0
-211 262 0
-211 212 0
-211 244 0
-211 236 0
212 -213 -227 -233 -234 0
-212 234 0
-212 213 0
-212 233 0
-212 227 0
213 -214 221 -222 579 0
213 -214 -221 -222 -579 0
-213 222 0
-213 221 -579 0
-213 214 0
-213 -221 579 0
214 215 217 218 613 0
214 -215 217 218 -613 0
-214 -217 0
-214 215 -613 0
-214 -218 0
-214 -215 613 0
106 215 -216 0
-106 215 -518 0
106 -215 216 0
-106 -215 518 0
216 -433 -508 0
-216 433 0
-216 508 0
138 217 -578 0
-217 578 0
-138 -217 0
218 -219 612 0
-218 -612 0
-218 219 0
106 219 -220 0
-106 219 -517 0
106 -219 220 0
-106 -219 517 0
220 -433 -507 0
-220 433 0
-220 507 0
-139 221 -433 -436 0
139 221 -433 -474 0
-221 433 0
-139 -221 436 0
139 -221 474 0
222 -223 225 -606 0
222 223 225 606 0
222 223 606 -614 0
222 -223 -606 -614 0
-222 223 -606 0
-222 -223 606 0
-222 -225 614 0
173 223 -224 0
-173 223 -517 0
173 -223 224 0
-173 -223 517 0
224 -433 -501 0
-224 433 0
-224 501 0
106 225 -226 0
-106 225 -519 0
106 -225 226 0
-106 -225 519 0
226 -433 -509 0
-226 433 0
-226 509 0
227 228 230 232 541 0
227 -228 230 232 -541 0
-227 -230 0
-227 228 -541 0
-227 -232 0
-227 -228 541 0
139 228 -229 0
-139 228 -519 0
139 -228 229 0
-139 -228 519 0
229 -433 -436 0
-229 433 0
-229 436 0
230 231 -539 0
-230 539 0
-230 -231 0
-41 139 231 0
-139 231 -517 0
41 139 -231 0
-139 -231 517 0
-121 232 -555 0
-232 555 0
121 -232 0
-219 233 -567 0
129 233 612 0
129 -219 233 0
233 -567 612 0
219 -233 -612 0
-129 -233 567 0
234 577 614 0
-225 234 -235 0
234 -235 614 0
-225 234 577 0
225 -234 -614 0
-234 235 -577 0
-139 235 -433 -434 0
139 235 -433 -472 0
-235 433 0
-139 -235 434 0
139 -235 472 0
236 -237 -238 -240 601 0
236 237 -238 -240 -601 0
-236 240 0
-236 237 601 0
-236 238 0
-236 -237 -601 0
135 237 496 0
-135 237 518 0
135 237 433 0
-135 -237 -518 0
135 -237 -433 -496 0
-201 238 -574 0
238 239 573 0
238 573 -574 0
-201 238 239 0
201 -238 -573 0
-238 -239 574 0
181 239 -433 -469 0
-181 239 -433 -512 0
-239 433 0
181 -239 469 0
-181 -239 512 0
240 241 242 243 547 0
240 241 -242 243 -547 0
-240 -241 0
-240 242 -547 0
-240 -243 0
-240 -242 547 0
-182 241 615 0
-241 -615 0
182 -241 0
-205 242 -517 0
205 242 -433 -442 0
205 -242 442 0
-205 -242 517 0
205 -242 433 0
-204 243 548 0
-243 -548 0
204 -243 0
244 -245 247 -249 616 0
244 -245 -247 -249 -616 0
-244 249 0
-244 247 -616 0
-244 245 0
-244 -247 616 0
245 607 611 0
-184 245 -246 0
245 -246 607 0
-184 245 611 0
184 -245 -607 0
-245 246 -611 0
-173 246 -433 -503 0
173 246 -433 -506 0
-246 433 0
-173 -246 503 0
173 -246 506 0
181 247 -248 0
-181 247 -518 0
181 -247 248 0
-181 -247 518 0
248 -433 -511 0
-248 433 0
-248 511 0
-179 249 -250 251 0
249 -250 251 617 0
-249 250 0
-249 -251 0
179 -249 -617 0
-239 250 -611 0
246 250 574 0
250 574 -611 0
-239 246 250 0
239 -250 -574 0
-246 -250 611 0
251 256 -538 0
251 252 -538 557 0
-251 538 0
-251 -256 -557 0
-251 -252 -256 0
252 -254 597 0
252 253 -254 539 0
-252 254 0
-252 -253 -597 0
-252 -539 -597 0
253 -547 -596 0
253 548 -596 0
-253 596 0
-253 547 -548 0
254 255 584 0
254 255 -548 0
254 255 -583 0
-254 -255 0
-254 548 583 -584 0
255 547 556 -598 0
255 556 -583 -598 0
-255 598 0
-255 -556 0
-255 -547 583 0
256 257 -258 599 0
256 257 -258 596 0
-256 258 0
-256 -257 0
-256 -596 -599 0
257 -539 584 0
196 257 -539 -596 0
-257 539 0
-257 -584 596 0
-196 -257 -584 0
258 260 597 0
258 259 260 599 0
-258 -260 0
-258 -259 -597 0
-258 -597 -599 0
259 -557 -583 596 0
-259 557 0
-259 583 0
-259 -596 0
260 261 583 0
260 -539 583 596 0
-260 -583 0
-260 -261 539 0
-260 -261 -596 0
261 -584 -597 0
261 557 597 0
-261 -557 597 0
-261 584 -597 0
262 -263 -298 -342 -358 0
-262 358 0
-262 263 0
-262 342 0
-262 298 0
263 -264 -277 -287 -297 0
-263 297 0
-263 264 0
-263 287 0
-263 277 0
264 265 -267 273 -576 0
264 -265 -267 273 576 0
-264 -273 0
-264 265 576 0
-264 267 0
-264 -265 -576 0
-20 144 265 0
155 265 266 0
144 155 265 0
20 -155 -265 0
-144 -265 -266 0
-144 -155 -265 0
266 466 -517 0
266 433 -517 0
-266 517 0
-266 -433 -466 0
267 -268 -270 -561 0
267 268 -270 561 0
-267 270 0
-267 268 -561 0
-267 -268 561 0
268 -269 -528 0
268 269 -433 -456 0
-268 269 456 0
-268 -269 528 0
-268 269 433 0
269 533 -534 535 536 0
-269 534 0
-269 -536 0
-269 -533 0
-269 -535 0
270 549 550 0
270 -271 -272 0
270 -272 550 0
270 -271 549 0
-270 271 -550 0
-270 272 -549 0
-84 271 -428 0
84 271 -433 -445 0
84 -271 433 0
-84 -271 428 0
84 -271 445 0
-84 272 -427 0
84 272 -433 -444 0
84 -272 433 0
-84 -272 427 0
84 -272 444 0
273 -274 -618 0
273 274 618 0
-273 -274 618 0
-273 274 -618 0
274 275 536 0
274 275 534 535 0
-274 -275 0
-274 -535 -536 0
-274 -534 -536 0
275 276 -433 -494 0
275 -433 -493 -494 0
-275 433 0
-275 494 0
-275 -276 493 0
276 433 0
276 491 492 0
-276 -433 -491 0
-276 -433 -492 0
277 -278 -281 -283 -285 0
-277 285 0
-277 278 0
-277 283 0
-277 281 0
278 -280 -566 0
278 279 593 0
278 279 -280 0
278 -566 593 0
-278 280 -593 0
-278 -279 566 0
-84 279 -421 0
84 279 -433 -461 0
84 -279 433 0
-84 -279 421 0
84 -279 461 0
-84 280 -417 0
84 280 -433 -488 0
84 -280 433 0
-84 -280 417 0
84 -280 488 0
281 -282 -549 0
272 281 588 0
272 281 -282 0
281 -549 588 0
-281 282 -588 0
-272 -281 549 0
-269 282 -521 0
269 282 -433 -483 0
269 -282 483 0
-269 -282 521 0
269 -282 433 0
283 -284 -550 0
271 283 591 0
271 283 -284 0
283 -550 591 0
-283 284 -591 0
-271 -283 550 0
-84 284 -425 0
84 284 -433 -486 0
84 -284 433 0
-84 -284 425 0
84 -284 486 0
285 -286 -588 0
282 285 592 0
282 285 -286 0
285 -588 592 0
-285 286 -592 0
-282 -285 588 0
-84 286 -416 0
84 286 -433 -487 0
84 -286 433 0
-84 -286 416 0
84 -286 487 0
287 -288 -294 -296 -581 0
287 -288 -294 296 581 0
-287 288 0
-287 -296 581 0
-287 294 0
-287 296 -581 0
288 -289 291 -545 0
288 -289 291 293 0
-288 289 0
-288 -291 0
-288 -293 545 0
-279 289 -580 0
289 290 566 0
289 566 -580 0
-279 289 290 0
279 -289 -566 0
-289 -290 580 0
-84 290 -430 0
84 290 -433 -475 0
84 -290 433 0
-84 -290 430 0
84 -290 475 0
291 -292 563 0
-291 -563 0
-291 292 0
-269 292 -530 0
269 292 -433 -458 0
269 -292 458 0
-269 -292 530 0
269 -292 433 0
-84 293 -405 0
84 293 -433 -440 0
84 -293 433 0
-84 -293 405 0
84 -293 440 0
286 294 -589 0
294 295 -592 0
294 -589 -592 0
286 294 295 0
-294 -295 589 0
-286 -294 592 0
-84 295 -423 0
84 295 -433 -484 0
84 -295 433 0
-84 -295 423 0
84 -295 484 0
-84 296 -431 0
84 296 -433 -476 0
84 -296 433 0
-84 -296 431 0
84 -296 476 0
231 297 -577 0
235 297 -539 0
297 -539 -577 0
231 235 297 0
-235 -297 577 0
-231 -297 539 0
298 -299 -333 -338 -340 0
-298 340 0
-298 299 0
-298 338 0
-298 333 0
299 -300 -321 -328 -331 0
-299 331 0
-299 300 0
-299 328 0
-299 321 0
300 301 -302 -315 552 0
300 -301 -302 -315 -552 0
-300 315 0
-300 301 -552 0
-300 302 0
-300 -301 552 0
-84 301 -413 0
84 301 -433 -447 0
84 -301 433 0
-84 -301 413 0
84 -301 447 0
302 -303 -304 0
302 -304 555 556 0
-302 304 0
-302 303 -556 0
-302 303 -555 0
303 555 597 -598 0
303 -584 597 598 0
-303 -597 0
-303 584 598 0
-303 -555 -598 0
304 -305 308 309 -310 0
-304 310 0
-304 -309 0
-304 305 0
-304 -308 0
305 -306 307 517 571 0
305 -306 307 -517 -571 0
-305 -307 0
-305 -517 571 0
-305 306 0
-305 517 -571 0
306 -538 618 0
-306 538 0
-306 -618 0
307 -518 595 0
-307 518 0
-307 -595 0
308 547 -557 583 596 0
-308 557 0
-308 -596 0
-308 -547 0
-308 -583 0
309 556 557 -584 -596 0
-309 -556 0
-309 596 0
-309 584 0
-309 -557 0
310 -311 -313 0
310 -313 -597 -598 0
-310 313 0
-310 311 597 0
-310 311 598 0
311 312 557 0
311 312 596 0
-311 -312 0
-311 -557 -596 0
312 583 -584 0
-312 -583 0
-312 584 0
313 -314 -519 -570 0
313 -314 519 570 0
-313 314 0
-313 -519 570 0
-313 519 -570 0
314 -584 595 0
314 -518 599 0
314 -518 -584 0
314 595 599 0
-314 584 -599 0
-314 518 -595 0
315 316 317 603 0
315 -316 317 -603 0
315 316 -598 603 0
315 -316 -598 -603 0
-315 316 -603 0
-315 -316 603 0
-315 -317 598 0
-84 316 -407 0
84 316 -433 -498 0
84 -316 433 0
-84 -316 407 0
84 -316 498 0
85 317 318 319 0
-85 -317 0
-317 -319 0
-317 -318 0
318 433 0
318 491 493 0
318 492 493 0
-318 -433 -493 0
-318 -433 -491 -492 0
319 -320 -492 -493 0
-319 492 0
-319 493 0
-319 320 0
320 -433 -491 0
-320 433 0
-320 491 0
321 -322 325 551 0
321 -322 325 -327 0
-321 322 0
-321 -325 0
-321 327 -551 0
322 554 604 0
322 -323 -324 0
322 -324 554 0
322 -323 604 0
-322 323 -554 0
-322 324 -604 0
-84 323 -415 0
84 323 -433 -449 0
84 -323 433 0
-84 -323 415 0
84 -323 449 0
-84 324 -408 0
84 324 -433 -499 0
84 -324 433 0
-84 -324 408 0
84 -324 499 0
325 326 -559 0
-325 559 0
-325 -326 0
-269 326 -526 0
269 326 -433 -454 0
269 -326 454 0
-269 -326 526 0
269 -326 433 0
-84 327 -429 0
84 327 -433 -446 0
84 -327 433 0
-84 -327 429 0
84 -327 446 0
328 329 -605 0
328 330 -553 0
328 -553 -605 0
328 329 330 0
-328 -330 605 0
-328 -329 553 0
-84 329 -414 0
84 329 -433 -448 0
84 -329 433 0
-84 -329 414 0
84 -329 448 0
-84 330 -409 0
84 330 -433 -500 0
84 -330 433 0
-84 -330 409 0
84 -330 500 0
327 331 -597 0
331 332 -551 0
331 -551 -597 0
327 331 332 0
-331 -332 597 0
-327 -331 551 0
85 332 -433 491 -492 0
85 332 -433 -491 492 0
-85 -332 0
-332 -491 -492 0
-332 433 0
-332 491 492 0
333 -335 -599 0
333 334 -335 0
-333 335 0
-333 -334 599 0
85 -319 334 494 0
85 319 334 -433 -494 0
319 -334 494 0
-319 -334 -494 0
-85 -334 0
-334 433 -494 0
335 -336 337 -565 596 0
335 336 -337 565 -596 0
335 336 337 565 596 0
335 -336 -337 -565 -596 0
-335 336 -565 0
-335 -336 565 0
-335 -337 596 0
-335 337 -596 0
-84 336 -420 0
84 336 -433 -460 0
84 -336 433 0
-84 -336 420 0
84 -336 460 0
85 320 337 0
-85 -337 0
-320 -337 0
338 -339 -546 598 0
-317 338 339 546 0
338 339 546 598 0
-317 338 -339 -546 0
-338 -339 546 0
-338 339 -546 0
317 -338 -598 0
-84 339 -406 0
84 339 -433 -441 0
84 -339 433 0
-84 -339 406 0
84 -339 441 0
340 -341 -587 599 0
-334 340 341 587 0
340 341 587 599 0
-334 340 -341 -587 0
-340 -341 587 0
-340 341 -587 0
334 -340 -599 0
-269 341 -520 0
269 341 -433 -482 0
269 -341 482 0
-269 -341 520 0
269 -341 433 0
342 -343 -350 -355 -356 0
-342 356 0
-342 343 0
-342 355 0
-342 350 0
343 -344 347 -348 582 0
343 -344 -347 -348 -582 0
-343 348 0
-343 347 -582 0
-343 344 0
-343 -347 582 0
344 -345 346 560 0
344 -345 -346 -560 0
-344 345 0
-344 346 -560 0
-344 -346 560 0
-293 345 -559 0
326 345 545 0
345 545 -559 0
-293 326 345 0
293 -345 -545 0
-326 -345 559 0
-269 346 -527 0
269 346 -433 -455 0
269 -346 455 0
-269 -346 527 0
269 -346 433 0
-84 347 -432 0
84 347 -433 -477 0
84 -347 433 0
-84 -347 432 0
84 -347 477 0
348 542 563 0
-292 348 -349 0
348 -349 563 0
-292 348 542 0
292 -348 -563 0
-348 349 -542 0
-84 349 -410 0
84 349 -433 -437 0
84 -349 433 0
-84 -349 410 0
84 -349 437 0
350 351 352 354 564 0
350 -351 352 354 -564 0
-350 -352 0
-350 351 -564 0
-350 -354 0
-350 -351 564 0
-84 351 -419 0
84 351 -433 -459 0
84 -351 433 0
-84 -351 419 0
84 -351 459 0
352 -353 590 0
-352 -590 0
-352 353 0
-84 353 -424 0
84 353 -433 -485 0
84 -353 433 0
-84 -353 424 0
84 -353 485 0
-323 354 554 0
-354 -554 0
323 -354 0
-330 355 -604 0
324 355 605 0
324 -330 355 0
355 -604 605 0
330 -355 -605 0
-324 -355 604 0
356 -558 580 0
-290 356 357 0
356 357 580 0
-290 356 -558 0
290 -356 -580 0
-356 -357 558 0
-269 357 -525 0
269 357 -433 -453 0
269 -357 453 0
-269 -357 525 0
269 -357 433 0
358 -359 -368 -369 -370 0
-358 370 0
-358 359 0
-358 369 0
-358 368 0
359 -360 -365 -366 0
-359 360 0
-359 365 0
-359 366 0
360 361 362 363 543 0
360 -361 362 363 -543 0
-360 -362 0
-360 361 -543 0
-360 -363 0
-360 -361 543 0
-84 361 -411 0
84 361 -433 -438 0
84 -361 433 0
-84 -361 411 0
84 -361 438 0
332 362 -597 0
-362 597 0
-332 -362 0
363 -364 594 0
-363 -594 0
-363 364 0
-84 364 -418 0
84 364 -433 -489 0
84 -364 433 0
-84 -364 418 0
84 -364 489 0
365 553 558 0
-329 -357 365 0
-357 365 553 0
-329 365 558 0
329 -365 -553 0
357 -365 -558 0
349 366 -544 0
366 367 -542 0
366 -542 -544 0
349 366 367 0
-366 -367 544 0
-349 -366 542 0
-84 367 -412 0
84 367 -433 -439 0
84 -367 433 0
-84 -367 412 0
84 -367 439 0
368 590 594 0
-353 -364 368 0
-364 368 590 0
-353 368 594 0
353 -368 -590 0
364 -368 -594 0
284 369 589 0
-295 369 -591 0
369 589 -591 0
284 -295 369 0
295 -369 -589 0
-284 -369 591 0
370 371 372 373 562 0
370 371 -372 373 -562 0
-370 -371 0
-370 372 -562 0
-370 -373 0
-370 -372 562 0
367 371 -544 0
-371 544 0
-367 -371 0
-269 372 -529 0
269 372 -433 -457 0
269 -372 457 0
-269 -372 529 0
269 -372 433 0
-280 373 593 0
-373 -593 0
280 -373 0
-83 92 374 0
16 92 374 -375 0
-92 -374 0
-16 83 -374 0
83 -374 375 0
78 79 -207 375 0
207 -375 0
-78 -375 0
-79 -375 0
376 -377 -380 0
376 -380 -478 492 0
-376 380 0
-376 377 -492 0
-376 377 478 0
377 378 450 451 494 0
-377 -378 0
-377 -494 0
-377 -450 0
-377 -451 0
378 -434 452 478 0
378 379 -452 478 0
-378 -478 0
-378 -379 -452 0
-378 434 452 0
379 -491 -492 0
379 -442 -443 -492 0
-379 492 0
-379 442 491 0
-379 443 491 0
380 381 383 385 -386 0
-380 386 0
-380 -385 0
-380 -381 0
-380 -383 0
381 -382 452 0
381 -434 452 -492 0
-381 -452 0
-381 382 492 0
-381 382 434 0
382 451 -479 -491 0
-382 491 0
-382 479 0
-382 -451 0
383 384 -494 0
383 384 -451 493 0
-383 -384 0
-383 -493 494 0
-383 451 494 0
384 -479 491 0
-384 479 0
-384 -491 0
385 -434 479 0
385 478 479 -492 0
-385 -479 0
-385 434 -478 0
-385 434 492 0
386 388 -479 0
386 387 388 452 0
-386 -388 0
-386 -452 479 0
-386 -387 479 0
387 451 -493 0
-387 -451 0
-387 493 0
387 388 -434 -491 0
388 -434 478 491 0
-388 434 0
-388 -478 491 0
-387 -388 -491 0
389 -393 -397 491 0
389 -390 -393 -397 0
-389 397 0
-389 393 0
-389 390 -491 0
90 95 390 0
390 -391 -392 0
90 390 -392 0
95 390 -391 0
-90 -390 391 0
-95 -390 392 0
391 -492 -493 0
-391 492 0
-391 493 0
392 -442 -443 0
-392 442 0
-392 443 0
-86 393 394 -395 513 0
86 -393 0
-393 -394 0
-393 -513 0
-393 395 0
-79 394 443 452 478 0
79 -394 0
-394 -478 0
-394 -443 0
-394 -452 0
79 395 396 0
395 396 -478 0
-391 395 396 0
-395 -396 0
-79 391 -395 478 0
-94 396 479 0
-94 396 -491 0
-94 396 -493 0
94 -396 0
-396 -479 491 493 0
397 492 493 0
397 -398 -401 0
397 -401 492 0
397 -398 493 0
-397 398 -492 0
-397 401 -493 0
398 433 0
398 399 -452 0
398 400 452 0
-398 -400 -433 452 0
-398 -399 -433 -452 0
399 -478 491 0
-399 478 0
-399 -491 0
400 -442 -491 0
400 443 -491 0
-400 491 0
-400 442 -443 0
95 401 402 403 0
384 401 402 403 0
-401 -403 0
-401 -402 0
-95 -384 -401 0
-90 402 -478 491 0
-402 478 0
-402 -491 0
90 -402 0
403 -404 442 451 0
403 -404 451 -478 0
-403 404 0
-403 -451 0
-403 -442 478 0
404 -433 452 0
-404 433 0
-404 -452 0
1 2 0
-1 -2 0
619 0

